NAME : XML100_2126_04
DIMENSION : 101
NB_CLUSTERS : 19
CLUSTERING_ALG : DBSCAN
CLUSTERING_PARAMS : eps(85), minSamples(3)
CLUSTERS
1 0
2 1 24 31 36 51 74 85 88 92
3 2 4 11 28 34 69
4 3 6 32 48 53 54 93
5 5 13 19 42 50 79 94
6 7 39 40 65
7 8 21 38 41 45 59 66 73 76 83 86
8 9 26 35 96 100
9 10 22 55 81 97
10 12 18 57 89
11 16 30 46 58 68
12 20 23 61 67 72 78 87 95
13 37 49 70 99
14 15 29 44 64 75 98
15 27 52 60 71 82
16 14 33 56 90
17 25 62 63 77 84 91
18 47 80
19 17 43
EOF